% seed = 0

mint = 45;
% maxt = 219;

nActs = 92;
dur = [0,3,3,1,2,3,2,3,2,3,2,1,6,7,1,2,2,4,2,4,2,2,3,1,3,4,1,2,2,2,3,1,4,2,2,1,2,2,1,2,1,6,2,2,1,3,2,3,1,1,1,2,3,4,2,1,1,3,2,1,1,3,3,1,2,6,2,5,3,1,4,3,3,4,2,4,3,2,3,1,5,2,2,2,2,2,3,2,3,1,2,0];

nSkills = 6;
sreq = [| 0,0,0,0,0,0,
	| 0,4,1,0,0,0,
	| 0,2,0,0,1,0,
	| 0,2,0,0,1,0,
	| 3,0,0,2,1,0,
	| 0,1,0,1,0,1,
	| 1,0,1,0,1,0,
	| 0,0,0,2,3,0,
	| 2,0,0,2,0,0,
	| 1,1,1,0,0,0,
	| 3,0,0,1,0,2,
	| 0,3,0,0,1,0,
	| 0,1,0,0,0,2,
	| 3,3,0,0,0,2,
	| 1,1,0,0,0,0,
	| 0,0,0,0,1,1,
	| 0,0,0,1,2,0,
	| 3,0,1,0,3,0,
	| 2,1,0,1,0,0,
	| 1,0,0,2,0,1,
	| 0,1,0,2,0,0,
	| 0,0,2,0,0,2,
	| 1,0,0,1,1,0,
	| 0,3,0,2,0,1,
	| 1,0,1,0,1,0,
	| 2,0,0,1,0,4,
	| 2,1,0,0,2,0,
	| 0,2,2,2,0,0,
	| 2,1,0,0,0,1,
	| 1,0,1,0,1,0,
	| 0,1,0,2,1,0,
	| 1,2,0,0,0,0,
	| 0,0,0,1,2,2,
	| 0,2,1,0,0,0,
	| 0,0,0,1,0,1,
	| 1,0,0,1,1,0,
	| 0,1,0,2,3,0,
	| 0,1,0,1,0,2,
	| 0,2,1,0,0,0,
	| 0,2,0,0,0,0,
	| 0,0,1,0,1,1,
	| 2,1,0,0,0,1,
	| 1,3,0,0,3,0,
	| 0,0,0,0,3,1,
	| 0,2,0,0,1,0,
	| 0,1,1,0,0,1,
	| 1,0,1,0,1,0,
	| 0,2,1,0,0,1,
	| 2,0,0,0,0,2,
	| 0,3,0,0,0,1,
	| 0,1,3,0,0,0,
	| 1,0,0,2,2,0,
	| 1,1,1,0,0,0,
	| 0,1,0,0,0,3,
	| 1,1,0,0,2,0,
	| 0,0,1,1,2,0,
	| 2,0,0,0,2,1,
	| 1,0,0,1,0,1,
	| 0,2,0,0,0,0,
	| 1,0,0,0,0,1,
	| 0,0,0,2,2,0,
	| 0,5,0,3,0,0,
	| 0,0,1,2,0,0,
	| 0,2,0,0,0,0,
	| 0,1,0,1,0,1,
	| 0,1,0,3,0,0,
	| 0,0,0,2,0,1,
	| 0,0,0,2,1,1,
	| 0,1,0,2,0,0,
	| 1,1,0,0,0,0,
	| 0,2,0,0,1,1,
	| 0,0,1,1,0,1,
	| 0,1,0,2,0,0,
	| 1,0,0,0,0,2,
	| 0,0,1,0,1,0,
	| 0,0,0,1,1,0,
	| 0,3,0,1,2,0,
	| 0,0,0,0,1,2,
	| 2,0,3,0,0,0,
	| 0,1,0,1,0,1,
	| 1,0,0,2,0,1,
	| 0,0,1,0,4,3,
	| 0,3,0,0,0,0,
	| 2,0,0,0,1,4,
	| 0,0,0,1,0,1,
	| 0,1,1,0,1,0,
	| 0,1,0,0,0,2,
	| 0,2,2,0,0,0,
	| 0,2,0,2,1,0,
	| 0,0,3,0,0,0,
	| 0,0,1,0,0,2,
	| 0,0,0,0,0,0, |];

% SumOfsreq = 347;

nResources = 12;
mastery = [| false,true,true,true,true,true,
	| true,true,false,true,true,true,
	| true,true,true,true,true,false,
	| false,true,true,true,true,true,
	| true,true,false,true,true,true,
	| true,true,false,true,true,true,
	| true,true,true,true,false,true,
	| true,false,true,true,true,true,
	| false,true,true,true,true,true,
	| false,true,true,true,true,true,
	| true,true,true,false,true,true,
	| true,true,false,true,true,true, |];

nPrecs = 194;
pred = [1,1,1,2,2,2,3,3,3,4,4,4,5,5,5,6,6,6,7,7,7,8,8,8,9,9,10,10,10,11,11,11,12,12,12,13,13,14,14,14,15,15,16,16,16,17,17,17,18,18,18,19,19,20,20,20,21,21,21,22,22,22,23,23,24,24,24,25,25,25,26,26,26,27,28,28,28,29,29,30,30,30,31,31,32,32,32,33,33,33,34,34,34,35,35,35,36,36,36,37,37,37,38,38,39,39,40,40,40,41,42,43,43,44,44,44,45,46,46,47,47,47,48,49,49,49,50,50,51,51,51,52,52,52,53,54,54,54,55,55,56,57,58,58,58,59,59,59,60,60,61,61,61,62,62,63,63,64,64,65,65,65,66,66,67,68,69,69,70,71,72,73,73,74,75,76,76,77,78,78,79,79,80,81,82,83,84,85,86,87,88,89,90,91];
succ = [2,3,4,34,11,20,5,22,7,10,21,6,9,17,12,27,13,64,18,26,8,19,14,15,25,31,68,28,40,60,30,16,42,37,45,41,54,41,75,62,17,20,53,78,31,49,29,39,46,30,40,27,47,91,76,48,56,23,24,51,36,54,35,85,25,27,71,82,67,61,69,38,32,66,65,44,55,30,54,33,84,36,58,90,88,46,86,35,62,56,49,69,63,73,44,63,41,43,80,51,38,48,59,84,42,77,57,43,47,74,66,53,45,69,67,45,81,52,56,49,63,48,82,50,59,55,60,64,58,52,79,90,68,53,87,57,60,55,83,61,82,61,66,59,70,75,85,88,76,62,73,84,70,67,77,79,64,71,72,73,70,71,68,80,72,89,74,72,75,76,78,74,77,79,86,83,78,87,81,80,81,87,88,86,83,90,85,91,89,91,89,92,92,92];

nUnrels = 2305;
unpred = [2,2,2,2,2,2,2,2,2,2,2,2,2,2,2,2,2,2,2,2,2,2,2,2,2,2,2,2,2,2,2,2,2,2,2,2,2,3,3,3,3,3,3,3,3,3,3,3,3,4,4,4,4,4,4,4,4,4,4,4,4,4,4,4,4,4,4,4,4,4,4,4,4,4,4,4,4,4,4,5,5,5,5,5,5,5,5,5,5,5,5,5,5,5,5,5,5,5,5,5,5,5,5,5,6,6,6,6,6,6,6,6,6,6,6,6,6,6,6,6,6,6,6,6,6,6,6,6,6,6,6,6,6,6,6,6,6,6,6,6,6,6,6,6,6,6,6,6,6,6,6,6,6,6,6,7,7,7,7,7,7,7,7,7,7,7,7,7,7,7,7,7,7,8,8,8,8,8,8,8,8,8,8,8,8,8,8,8,8,8,8,8,8,8,8,8,8,8,9,9,9,9,9,9,9,9,9,9,9,9,9,9,9,9,9,9,9,9,9,9,9,9,9,9,9,9,9,9,9,9,9,9,9,9,9,9,9,9,9,9,9,9,9,9,9,9,9,9,9,9,9,9,10,10,10,10,10,10,10,10,10,10,10,10,10,10,10,10,10,10,10,10,10,10,10,10,10,10,10,10,10,10,10,10,10,10,10,10,10,11,11,11,11,11,11,11,11,11,11,11,11,11,11,11,11,11,11,11,11,11,11,11,11,11,11,11,11,11,11,11,11,11,11,11,11,12,12,12,12,12,12,12,12,12,12,12,12,12,12,12,12,12,12,12,12,12,12,12,12,12,12,12,12,12,12,12,12,12,12,12,12,12,12,12,12,12,12,12,12,12,12,12,12,12,12,12,12,13,13,13,13,13,13,13,13,13,13,13,13,13,13,13,13,13,13,13,13,13,13,13,13,13,13,13,13,13,13,13,13,13,13,13,13,13,13,13,13,13,13,13,13,13,13,13,13,13,13,14,14,14,14,14,14,14,14,14,14,14,14,14,14,14,14,14,14,14,14,14,14,14,14,14,14,14,14,14,14,14,14,14,14,14,14,14,14,14,14,14,14,14,14,14,14,14,14,14,14,14,14,14,14,14,14,14,14,14,14,14,15,15,15,15,15,15,15,15,15,15,15,15,15,15,15,15,15,15,15,15,15,15,15,16,16,16,16,16,16,16,16,16,16,16,16,16,16,16,16,16,16,16,16,16,16,16,16,16,16,16,16,16,16,16,16,16,16,16,16,16,16,16,16,16,16,16,16,16,16,16,16,16,16,16,16,16,16,16,16,16,17,17,17,17,17,17,17,17,17,17,17,17,17,17,17,17,17,17,17,17,17,17,17,17,18,18,18,18,18,18,18,18,18,18,18,18,18,18,18,18,18,18,18,18,18,18,18,19,19,19,19,19,19,19,19,19,19,19,19,19,19,19,19,19,19,19,19,19,19,19,19,19,19,19,19,19,19,19,19,19,19,19,20,20,20,20,20,20,20,20,20,20,20,20,20,20,20,20,20,20,20,20,20,20,20,20,20,20,20,20,20,20,20,20,20,20,20,20,20,20,20,20,20,20,20,20,20,20,20,20,20,20,20,20,20,20,20,20,20,20,20,21,21,21,21,21,21,21,21,21,21,21,21,21,21,21,21,21,21,21,21,21,21,21,21,21,21,21,21,21,21,21,21,21,22,22,22,22,22,22,22,22,22,22,22,22,22,22,22,22,22,22,22,22,22,22,22,22,22,22,22,22,22,22,22,23,23,23,23,23,23,23,23,23,23,23,23,23,23,23,23,23,23,23,23,23,23,23,23,23,23,23,23,23,23,23,23,23,23,23,23,23,23,23,23,23,23,23,24,24,24,24,24,24,24,24,24,24,24,24,24,24,24,24,24,24,24,24,24,24,24,24,24,24,24,24,24,24,24,24,24,24,24,24,24,24,24,25,25,25,25,25,25,25,25,25,25,25,25,25,25,25,25,25,25,25,25,25,25,25,25,25,25,25,25,25,25,25,25,25,25,25,25,25,25,25,25,25,25,25,25,26,26,26,26,26,26,26,26,26,26,26,26,26,26,26,26,26,26,26,26,26,26,26,26,26,26,26,26,26,26,26,26,26,26,26,26,26,26,26,27,27,27,27,27,27,27,27,27,27,27,27,27,27,27,27,27,27,27,27,27,27,27,27,27,27,27,27,27,27,27,27,27,27,27,27,27,27,27,27,27,27,27,27,27,27,27,27,27,27,27,27,27,27,27,27,27,27,27,28,28,28,28,28,28,28,28,28,28,28,28,28,28,28,28,28,28,28,28,28,28,28,28,28,28,28,28,28,28,28,28,28,28,28,29,29,29,29,29,29,29,29,29,29,29,29,29,29,29,29,29,29,29,29,30,30,30,30,30,30,30,30,30,30,30,30,30,30,30,30,30,30,30,30,30,30,30,30,30,30,30,31,31,31,31,31,31,31,31,31,31,31,31,31,31,31,31,31,31,31,31,31,31,31,31,31,31,31,31,31,31,31,31,31,31,31,31,31,31,31,31,31,31,31,31,31,31,31,32,32,32,32,32,32,32,32,32,32,32,32,32,32,32,32,32,32,32,32,32,32,32,32,32,32,32,32,32,32,32,32,32,32,32,32,32,32,32,32,32,32,32,32,32,32,33,33,33,33,33,33,33,33,33,33,33,33,33,33,33,33,33,33,33,33,33,33,33,33,33,33,33,33,33,33,33,34,34,34,34,34,34,34,34,34,34,34,34,34,34,34,34,34,34,34,34,34,34,34,34,34,35,35,35,35,35,35,35,35,35,35,35,35,35,35,35,35,35,35,35,35,35,35,35,35,35,35,35,35,35,35,35,35,35,36,36,36,36,36,36,36,36,36,36,36,36,36,36,36,36,36,36,36,36,36,36,36,36,36,36,36,36,36,36,36,36,36,36,36,36,36,36,36,36,36,36,37,37,37,37,37,37,37,37,37,37,37,37,37,37,37,37,37,37,37,37,37,37,37,37,37,37,37,37,37,37,38,38,38,38,38,38,38,38,38,38,38,38,38,38,38,38,38,38,38,38,38,38,38,38,38,38,38,38,38,38,38,38,38,38,38,38,38,38,38,38,38,38,38,38,38,39,39,39,39,39,39,39,39,39,39,39,39,39,39,39,39,39,39,39,39,39,39,39,39,39,39,39,39,39,39,39,39,39,39,39,39,39,39,39,39,39,39,39,40,40,40,40,40,40,40,40,40,40,40,40,40,41,41,41,41,41,41,41,41,41,41,41,41,41,41,41,41,41,41,41,41,41,41,41,41,41,41,41,41,41,41,41,41,41,41,41,41,41,41,41,41,41,41,41,42,42,42,42,42,42,42,42,42,42,42,42,42,42,42,42,42,42,42,42,42,42,42,42,42,42,42,42,42,42,42,42,42,42,42,42,42,42,42,42,42,42,42,42,43,43,43,43,43,43,43,43,43,43,43,43,43,43,43,43,43,43,43,43,43,43,43,43,43,43,43,43,43,43,43,43,43,43,43,43,43,43,43,43,43,44,44,44,44,44,44,44,44,44,44,44,44,44,44,44,44,44,44,44,44,44,44,44,44,44,44,44,44,44,44,44,44,44,45,45,45,45,45,45,45,45,45,45,45,45,45,45,45,45,45,45,45,45,45,45,45,45,45,45,45,45,45,45,45,45,45,45,45,45,45,45,45,45,45,45,45,46,46,46,46,46,46,46,46,46,46,46,46,46,46,46,46,46,46,46,46,46,46,46,46,46,46,46,46,46,46,46,46,46,46,46,47,47,47,47,47,47,47,47,47,47,47,48,48,48,48,48,48,48,48,48,48,48,48,48,48,48,48,48,48,48,48,48,48,48,48,48,48,48,48,48,48,48,48,48,48,48,48,48,48,48,48,49,49,49,49,49,49,49,49,49,49,49,49,49,50,50,50,50,50,50,50,50,50,50,50,50,50,50,50,50,50,50,50,50,50,50,50,51,51,51,51,51,51,51,51,51,51,51,51,51,51,51,51,51,51,51,51,51,51,52,52,52,52,52,52,52,52,52,52,52,52,52,52,52,52,52,52,52,52,52,52,52,52,52,52,52,52,52,52,52,52,52,53,53,53,53,53,53,53,53,53,53,53,53,53,53,53,53,53,53,53,53,53,53,53,53,53,53,53,53,53,53,53,53,53,53,53,53,54,54,54,54,54,54,54,54,54,54,54,55,55,55,55,55,55,55,55,55,55,55,55,55,55,55,55,55,55,55,55,56,56,56,56,56,56,56,56,56,56,56,56,56,56,56,56,56,56,56,56,56,56,56,56,56,56,56,56,56,56,56,56,57,57,57,57,57,57,57,57,57,57,57,57,57,57,57,57,57,57,57,57,58,58,58,58,58,58,58,58,58,58,58,58,58,58,58,58,58,58,58,58,58,58,59,59,59,59,59,59,59,59,59,59,59,59,59,59,59,59,59,59,59,59,59,59,59,59,59,59,60,60,60,60,60,60,60,60,60,60,60,60,60,60,60,60,61,61,61,61,61,61,61,61,61,61,61,61,61,61,61,61,61,62,62,62,62,62,62,62,62,62,62,62,62,62,62,62,62,62,62,63,63,63,63,63,63,63,63,63,63,63,63,63,64,64,64,64,64,64,64,64,64,64,64,64,64,64,64,64,65,65,65,65,65,65,65,65,66,66,66,66,66,66,66,66,66,66,66,66,66,66,66,66,66,66,66,66,66,67,67,67,67,67,67,67,67,67,67,67,67,67,67,67,67,67,68,68,68,68,68,68,68,68,68,68,68,68,68,68,68,68,68,68,68,68,68,68,69,69,69,69,69,69,69,69,69,69,69,70,70,70,70,70,70,70,70,70,70,70,70,70,70,70,70,70,70,71,71,71,71,71,71,71,71,71,71,71,72,72,72,72,72,72,72,72,72,72,72,72,72,73,73,73,73,73,73,73,73,73,73,74,74,74,74,74,74,74,74,74,74,74,75,75,75,75,75,75,75,75,75,75,75,75,75,75,76,76,76,76,76,76,76,77,77,77,77,77,77,77,77,77,77,77,77,78,78,78,78,78,78,78,78,79,79,79,79,79,79,79,80,80,80,80,80,80,80,80,80,81,81,81,81,81,81,81,81,82,82,82,82,82,82,82,83,83,83,83,83,83,83,84,84,84,84,84,85,85,85,85,85,86,86,86,86,87,87,87,88,88,89,89,90];
unsucc = [3,4,5,6,7,8,9,10,12,13,14,15,17,18,19,21,22,23,24,25,26,27,28,29,32,37,38,39,40,42,46,47,51,52,54,57,65,4,6,10,11,13,16,21,23,24,28,34,65,5,7,8,9,11,12,14,15,16,17,18,19,20,22,26,29,30,31,32,33,34,36,37,38,39,42,46,51,52,58,6,7,8,10,11,13,14,15,16,18,19,20,21,22,23,24,26,27,28,32,34,40,46,47,65,7,8,9,10,11,12,14,15,16,17,18,19,20,21,22,23,24,25,26,28,29,30,31,32,33,34,35,36,37,38,39,40,42,43,44,45,46,47,48,49,50,51,52,53,56,58,59,63,65,69,82,9,10,11,12,13,16,21,22,23,24,25,28,31,34,37,51,58,65,9,10,11,12,13,16,18,21,22,23,24,25,26,28,31,32,34,37,38,40,46,51,52,58,65,10,11,12,13,14,15,16,17,18,19,20,21,22,23,24,26,27,28,29,30,32,33,34,35,36,37,38,39,40,41,42,43,44,45,46,47,48,49,50,51,52,53,54,55,56,57,60,62,63,64,65,69,71,76,11,12,13,14,15,16,17,18,19,20,21,22,23,24,25,26,27,29,30,31,32,33,34,35,36,37,38,39,41,42,46,51,52,54,56,58,66,12,13,14,15,17,18,19,20,21,22,23,24,25,26,27,28,29,32,34,37,38,39,40,42,46,47,48,49,50,51,52,54,55,57,61,65,13,14,15,16,17,18,19,20,21,22,23,24,25,26,27,28,29,30,31,32,33,34,35,36,39,40,41,43,44,46,47,49,50,54,55,56,57,60,61,62,63,64,65,67,69,71,72,73,74,76,77,78,14,15,16,17,18,19,20,21,22,23,24,25,26,27,28,29,30,31,32,33,34,35,36,37,38,39,40,42,43,44,45,46,47,48,49,50,51,52,53,56,58,59,63,64,65,66,68,69,71,82,15,16,17,18,19,20,21,22,23,24,25,26,27,28,29,30,31,32,33,34,35,36,37,38,39,40,42,43,44,45,46,47,48,49,50,51,52,53,54,55,56,57,58,59,60,61,63,64,65,66,68,69,70,71,73,76,82,83,84,85,90,16,18,19,21,22,23,24,25,26,27,28,31,32,34,37,38,40,46,47,51,52,58,65,17,18,19,20,21,22,23,24,25,26,27,28,29,30,32,33,34,35,36,37,38,39,40,41,42,43,44,45,46,47,48,49,50,51,52,54,55,56,57,60,61,62,63,64,65,67,69,71,72,73,74,76,77,79,82,83,84,18,19,20,21,22,23,24,25,26,27,28,31,32,34,37,38,40,46,47,48,51,52,58,65,19,20,21,22,23,24,25,26,27,28,29,31,32,34,37,38,39,42,51,54,58,65,66,20,21,22,23,24,25,26,28,29,30,31,32,33,34,35,36,37,38,39,40,41,42,43,44,45,46,51,52,53,54,56,57,58,65,69,21,22,23,24,25,26,27,28,29,30,31,32,33,34,35,36,37,38,39,40,41,42,43,44,45,46,47,49,50,51,52,53,54,55,56,57,58,59,60,61,62,63,64,65,66,67,68,69,70,71,72,73,74,75,77,79,84,85,87,22,26,28,29,30,31,32,33,34,36,37,38,39,40,41,42,43,46,47,48,49,50,51,52,53,54,55,57,58,59,60,62,65,23,24,25,26,27,28,29,30,31,32,33,34,35,37,38,39,40,42,44,46,47,48,49,50,56,63,64,65,69,71,82,24,25,26,27,28,29,30,31,32,33,34,36,37,38,39,40,41,42,43,46,47,48,49,50,51,52,53,54,55,56,57,58,59,60,61,62,65,66,68,70,75,82,84,26,28,29,30,31,32,33,34,35,36,37,38,39,40,41,42,43,44,45,46,47,48,49,50,51,52,53,54,55,56,57,58,59,60,62,63,64,65,69,26,27,28,29,30,31,32,33,34,35,36,37,38,39,40,41,42,43,44,45,46,47,48,49,50,51,52,53,54,55,56,57,58,59,60,62,63,64,65,66,68,69,71,76,27,28,29,30,31,33,34,35,36,37,39,40,41,42,43,44,45,47,48,49,50,51,54,55,57,58,60,61,62,63,64,65,66,67,70,71,73,76,77,28,29,30,31,32,33,34,35,36,37,38,39,40,41,42,43,44,45,46,47,48,49,50,51,52,53,54,55,56,57,58,59,60,61,62,63,64,65,67,69,70,71,72,73,74,75,76,77,78,79,81,82,83,84,85,86,87,90,91,29,30,31,32,33,34,35,36,37,38,39,40,41,42,43,46,47,48,49,50,51,52,53,54,56,57,58,59,60,62,63,64,66,68,82,31,32,34,37,38,39,40,42,46,47,48,49,50,51,52,58,59,65,66,68,31,32,34,37,38,39,40,42,46,47,48,49,50,51,52,54,55,57,58,59,60,61,65,66,68,70,75,32,33,34,35,36,37,38,39,40,41,42,43,44,45,46,47,48,49,50,51,52,53,54,55,56,57,60,61,62,63,64,65,67,69,71,72,73,74,76,77,78,79,81,82,83,84,87,33,34,35,36,37,38,39,40,41,42,43,44,45,47,48,49,50,51,54,55,57,58,59,60,61,62,63,64,65,66,67,69,70,71,72,73,74,75,76,77,78,79,80,81,84,85,34,36,37,38,39,40,41,42,43,46,47,48,49,50,51,52,53,54,55,57,58,59,60,61,65,66,68,70,75,84,85,35,36,37,38,39,40,41,42,43,44,45,46,47,48,51,52,53,54,56,57,58,65,66,68,82,36,37,38,39,40,41,42,43,46,47,48,49,50,51,52,53,54,55,56,57,58,59,60,61,62,65,66,68,70,75,82,84,85,37,38,39,40,42,44,46,47,48,49,50,51,52,54,55,56,57,58,59,60,61,62,63,64,65,66,67,68,69,70,71,72,73,75,76,77,78,82,83,84,85,90,39,40,41,42,43,44,45,46,47,49,50,54,55,56,57,60,61,62,63,64,65,67,69,71,72,73,74,76,77,78,39,40,41,42,43,44,45,46,47,48,49,50,51,52,53,54,55,56,57,58,60,61,62,63,64,65,66,67,68,69,70,71,72,73,74,76,77,78,79,80,81,82,83,87,90,40,41,43,44,45,46,47,48,49,50,51,52,53,54,55,56,57,58,59,60,61,62,63,64,65,67,69,70,71,72,73,74,75,76,78,79,81,82,83,84,85,86,90,41,42,44,46,51,52,54,56,58,65,66,68,69,42,43,44,45,46,47,48,49,50,51,52,53,54,55,56,57,58,59,60,61,62,63,64,65,66,67,68,69,70,71,72,73,75,76,77,78,80,82,83,84,85,88,90,43,44,45,46,47,48,49,50,51,52,53,54,55,56,57,58,59,60,61,62,63,64,65,67,69,70,71,72,73,74,75,76,77,78,79,81,82,83,84,85,86,87,90,91,44,46,47,48,49,50,51,52,54,55,56,57,58,59,60,61,62,63,64,65,66,67,68,69,70,71,72,73,74,75,76,77,78,79,80,82,83,84,85,88,90,46,47,48,49,50,51,52,53,54,55,56,57,58,59,60,61,62,63,64,65,66,68,70,71,73,75,76,77,82,83,84,85,90,46,47,48,49,50,51,52,53,54,55,56,57,58,59,60,61,62,63,64,65,66,67,68,69,70,71,72,73,74,75,76,77,78,79,80,82,83,84,85,87,88,90,91,47,48,49,50,51,54,55,57,58,59,60,61,62,63,64,65,66,67,69,70,71,72,73,74,75,76,77,78,79,80,81,84,85,86,88,51,52,53,54,56,57,58,65,66,68,69,49,50,51,52,53,54,55,56,57,58,59,60,61,62,63,64,65,66,67,68,69,70,71,72,73,74,75,76,77,78,79,80,81,84,85,86,87,88,89,91,51,52,53,54,56,57,58,63,65,66,68,69,82,51,52,53,54,55,56,57,58,59,61,63,65,66,68,69,70,73,74,75,79,82,84,85,54,55,56,57,60,61,62,63,64,65,67,69,71,72,73,74,76,77,78,82,83,84,54,55,56,57,58,59,60,61,62,63,64,65,66,67,69,70,71,72,73,74,75,76,77,78,79,80,81,82,83,84,85,86,88,54,55,56,57,58,59,60,61,62,63,64,65,66,67,68,69,70,71,72,73,74,75,76,77,78,79,80,81,82,83,84,85,86,88,89,90,56,58,59,63,64,65,66,68,69,71,82,56,57,58,59,60,62,63,64,65,66,67,68,69,71,72,76,78,80,82,88,57,58,59,60,61,62,63,64,65,66,67,68,69,70,71,72,73,74,75,76,77,78,79,80,81,84,85,86,87,88,89,91,58,59,60,62,63,64,65,66,67,68,69,71,72,76,78,80,82,83,88,90,60,61,62,63,64,65,67,69,71,72,73,74,76,77,78,79,81,82,83,84,87,90,60,61,62,63,64,65,66,67,68,69,70,71,72,73,74,76,77,78,79,80,81,82,83,84,87,90,61,63,64,65,66,68,69,70,71,73,74,75,79,82,84,85,62,63,64,65,66,67,68,69,71,72,76,78,80,82,83,88,90,63,64,65,66,68,69,70,71,73,74,75,76,79,82,83,84,85,90,65,66,67,68,69,70,73,74,75,77,82,84,85,65,66,67,68,69,70,73,74,75,77,79,82,84,85,87,91,66,67,68,69,72,82,84,85,67,69,70,71,72,73,74,75,76,77,78,79,81,82,83,84,85,86,87,90,91,68,69,70,71,73,74,75,76,77,79,82,83,84,85,87,90,91,69,70,71,72,73,74,75,76,77,78,79,80,81,82,83,84,85,86,87,88,90,91,70,71,73,75,76,77,82,83,84,85,90,71,72,73,74,76,77,78,79,80,81,82,83,84,85,87,88,90,91,72,73,74,75,77,79,82,84,85,87,91,73,74,75,76,77,79,82,83,84,85,87,90,91,75,76,78,80,82,83,84,85,88,90,75,76,77,78,80,82,83,84,85,88,90,76,77,78,79,80,81,82,83,84,85,87,88,90,91,77,79,82,84,85,87,91,78,79,80,81,82,83,84,85,86,88,89,90,79,82,83,84,85,87,90,91,80,82,83,84,85,88,90,81,82,83,84,85,86,87,90,91,82,83,84,85,87,88,90,91,84,85,86,87,88,89,91,84,85,86,87,88,89,91,86,87,88,89,90,86,87,88,89,90,87,88,90,91,88,89,90,90,91,90,91,91];

USEFUL_RES = [{},
	{1,2,3,4,5,6,7,8,9,10,11,12},
	{1,2,3,4,5,6,7,8,9,10,11,12},
	{1,2,3,4,5,6,7,8,9,10,11,12},
	{1,2,3,4,5,6,7,8,9,10,11,12},
	{1,2,3,4,5,6,7,8,9,10,11,12},
	{1,2,3,4,5,6,7,8,9,10,11,12},
	{1,2,3,4,5,6,7,8,9,10,11,12},
	{1,2,3,4,5,6,7,8,9,10,11,12},
	{1,2,3,4,5,6,7,8,9,10,11,12},
	{1,2,3,4,5,6,7,8,9,10,11,12},
	{1,2,3,4,5,6,7,8,9,10,11,12},
	{1,2,3,4,5,6,7,8,9,10,11,12},
	{1,2,3,4,5,6,7,8,9,10,11,12},
	{1,2,3,4,5,6,7,8,9,10,11,12},
	{1,2,3,4,5,6,7,8,9,10,11,12},
	{1,2,3,4,5,6,7,8,9,10,11,12},
	{1,2,3,4,5,6,7,8,9,10,11,12},
	{1,2,3,4,5,6,7,8,9,10,11,12},
	{1,2,3,4,5,6,7,8,9,10,11,12},
	{1,2,3,4,5,6,7,8,9,10,11,12},
	{1,2,3,4,5,6,7,8,9,10,11,12},
	{1,2,3,4,5,6,7,8,9,10,11,12},
	{1,2,3,4,5,6,7,8,9,10,11,12},
	{1,2,3,4,5,6,7,8,9,10,11,12},
	{1,2,3,4,5,6,7,8,9,10,11,12},
	{1,2,3,4,5,6,7,8,9,10,11,12},
	{1,2,3,4,5,6,7,8,9,10,11,12},
	{1,2,3,4,5,6,7,8,9,10,11,12},
	{1,2,3,4,5,6,7,8,9,10,11,12},
	{1,2,3,4,5,6,7,8,9,10,11,12},
	{1,2,3,4,5,6,7,8,9,10,11,12},
	{1,2,3,4,5,6,7,8,9,10,11,12},
	{1,2,3,4,5,6,7,8,9,10,11,12},
	{1,2,3,4,5,6,7,8,9,10,11,12},
	{1,2,3,4,5,6,7,8,9,10,11,12},
	{1,2,3,4,5,6,7,8,9,10,11,12},
	{1,2,3,4,5,6,7,8,9,10,11,12},
	{1,2,3,4,5,6,7,8,9,10,11,12},
	{1,2,3,4,5,6,7,9,10,11,12},
	{1,2,3,4,5,6,7,8,9,10,11,12},
	{1,2,3,4,5,6,7,8,9,10,11,12},
	{1,2,3,4,5,6,7,8,9,10,11,12},
	{1,2,3,4,5,6,7,8,9,10,11,12},
	{1,2,3,4,5,6,7,8,9,10,11,12},
	{1,2,3,4,5,6,7,8,9,10,11,12},
	{1,2,3,4,5,6,7,8,9,10,11,12},
	{1,2,3,4,5,6,7,8,9,10,11,12},
	{1,2,3,4,5,6,7,8,9,10,11,12},
	{1,2,3,4,5,6,7,8,9,10,11,12},
	{1,2,3,4,5,6,7,8,9,10,11,12},
	{1,2,3,4,5,6,7,8,9,10,11,12},
	{1,2,3,4,5,6,7,8,9,10,11,12},
	{1,2,3,4,5,6,7,8,9,10,11,12},
	{1,2,3,4,5,6,7,8,9,10,11,12},
	{1,2,3,4,5,6,7,8,9,10,11,12},
	{1,2,3,4,5,6,7,8,9,10,11,12},
	{1,2,3,4,5,6,7,8,9,10,11,12},
	{1,2,3,4,5,6,7,9,10,11,12},
	{1,2,3,4,5,6,7,8,9,10,11,12},
	{1,2,3,4,5,6,7,8,9,10,11,12},
	{1,2,3,4,5,6,7,8,9,10,11,12},
	{1,2,3,4,5,6,7,8,9,10,11,12},
	{1,2,3,4,5,6,7,9,10,11,12},
	{1,2,3,4,5,6,7,8,9,10,11,12},
	{1,2,3,4,5,6,7,8,9,10,11,12},
	{1,2,3,4,5,6,7,8,9,10,11,12},
	{1,2,3,4,5,6,7,8,9,10,11,12},
	{1,2,3,4,5,6,7,8,9,10,11,12},
	{1,2,3,4,5,6,7,8,9,10,11,12},
	{1,2,3,4,5,6,7,8,9,10,11,12},
	{1,2,3,4,5,6,7,8,9,10,11,12},
	{1,2,3,4,5,6,7,8,9,10,11,12},
	{1,2,3,4,5,6,7,8,9,10,11,12},
	{1,2,3,4,5,6,7,8,9,10,11,12},
	{1,2,3,4,5,6,7,8,9,10,11,12},
	{1,2,3,4,5,6,7,8,9,10,11,12},
	{1,2,3,4,5,6,7,8,9,10,11,12},
	{1,2,3,4,5,6,7,8,9,10,11,12},
	{1,2,3,4,5,6,7,8,9,10,11,12},
	{1,2,3,4,5,6,7,8,9,10,11,12},
	{1,2,3,4,5,6,7,8,9,10,11,12},
	{1,2,3,4,5,6,7,9,10,11,12},
	{1,2,3,4,5,6,7,8,9,10,11,12},
	{1,2,3,4,5,6,7,8,9,10,11,12},
	{1,2,3,4,5,6,7,8,9,10,11,12},
	{1,2,3,4,5,6,7,8,9,10,11,12},
	{1,2,3,4,5,6,7,8,9,10,11,12},
	{1,2,3,4,5,6,7,8,9,10,11,12},
	{1,3,4,7,8,9,10,11},
	{1,2,3,4,5,6,7,8,9,10,11,12},
	{}];

POTENTIAL_ACT = [{2,3,4,5,6,7,8,9,10,11,12,13,14,15,16,17,18,19,20,21,22,23,24,25,26,27,28,29,30,31,32,33,34,35,36,37,38,39,40,41,42,43,44,45,46,47,48,49,50,51,52,53,54,55,56,57,58,59,60,61,62,63,64,65,66,67,68,69,70,71,72,73,74,75,76,77,78,79,80,81,82,83,84,85,86,87,88,89,90,91},
	{2,3,4,5,6,7,8,9,10,11,12,13,14,15,16,17,18,19,20,21,22,23,24,25,26,27,28,29,30,31,32,33,34,35,36,37,38,39,40,41,42,43,44,45,46,47,48,49,50,51,52,53,54,55,56,57,58,59,60,61,62,63,64,65,66,67,68,69,70,71,72,73,74,75,76,77,78,79,80,81,82,83,84,85,86,87,88,89,91},
	{2,3,4,5,6,7,8,9,10,11,12,13,14,15,16,17,18,19,20,21,22,23,24,25,26,27,28,29,30,31,32,33,34,35,36,37,38,39,40,41,42,43,44,45,46,47,48,49,50,51,52,53,54,55,56,57,58,59,60,61,62,63,64,65,66,67,68,69,70,71,72,73,74,75,76,77,78,79,80,81,82,83,84,85,86,87,88,89,90,91},
	{2,3,4,5,6,7,8,9,10,11,12,13,14,15,16,17,18,19,20,21,22,23,24,25,26,27,28,29,30,31,32,33,34,35,36,37,38,39,40,41,42,43,44,45,46,47,48,49,50,51,52,53,54,55,56,57,58,59,60,61,62,63,64,65,66,67,68,69,70,71,72,73,74,75,76,77,78,79,80,81,82,83,84,85,86,87,88,89,90,91},
	{2,3,4,5,6,7,8,9,10,11,12,13,14,15,16,17,18,19,20,21,22,23,24,25,26,27,28,29,30,31,32,33,34,35,36,37,38,39,40,41,42,43,44,45,46,47,48,49,50,51,52,53,54,55,56,57,58,59,60,61,62,63,64,65,66,67,68,69,70,71,72,73,74,75,76,77,78,79,80,81,82,83,84,85,86,87,88,89,91},
	{2,3,4,5,6,7,8,9,10,11,12,13,14,15,16,17,18,19,20,21,22,23,24,25,26,27,28,29,30,31,32,33,34,35,36,37,38,39,40,41,42,43,44,45,46,47,48,49,50,51,52,53,54,55,56,57,58,59,60,61,62,63,64,65,66,67,68,69,70,71,72,73,74,75,76,77,78,79,80,81,82,83,84,85,86,87,88,89,91},
	{2,3,4,5,6,7,8,9,10,11,12,13,14,15,16,17,18,19,20,21,22,23,24,25,26,27,28,29,30,31,32,33,34,35,36,37,38,39,40,41,42,43,44,45,46,47,48,49,50,51,52,53,54,55,56,57,58,59,60,61,62,63,64,65,66,67,68,69,70,71,72,73,74,75,76,77,78,79,80,81,82,83,84,85,86,87,88,89,90,91},
	{2,3,4,5,6,7,8,9,10,11,12,13,14,15,16,17,18,19,20,21,22,23,24,25,26,27,28,29,30,31,32,33,34,35,36,37,38,39,41,42,43,44,45,46,47,48,49,50,51,52,53,54,55,56,57,58,60,61,62,63,65,66,67,68,69,70,71,72,73,74,75,76,77,78,79,80,81,82,84,85,86,87,88,89,90,91},
	{2,3,4,5,6,7,8,9,10,11,12,13,14,15,16,17,18,19,20,21,22,23,24,25,26,27,28,29,30,31,32,33,34,35,36,37,38,39,40,41,42,43,44,45,46,47,48,49,50,51,52,53,54,55,56,57,58,59,60,61,62,63,64,65,66,67,68,69,70,71,72,73,74,75,76,77,78,79,80,81,82,83,84,85,86,87,88,89,90,91},
	{2,3,4,5,6,7,8,9,10,11,12,13,14,15,16,17,18,19,20,21,22,23,24,25,26,27,28,29,30,31,32,33,34,35,36,37,38,39,40,41,42,43,44,45,46,47,48,49,50,51,52,53,54,55,56,57,58,59,60,61,62,63,64,65,66,67,68,69,70,71,72,73,74,75,76,77,78,79,80,81,82,83,84,85,86,87,88,89,90,91},
	{2,3,4,5,6,7,8,9,10,11,12,13,14,15,16,17,18,19,20,21,22,23,24,25,26,27,28,29,30,31,32,33,34,35,36,37,38,39,40,41,42,43,44,45,46,47,48,49,50,51,52,53,54,55,56,57,58,59,60,61,62,63,64,65,66,67,68,69,70,71,72,73,74,75,76,77,78,79,80,81,82,83,84,85,86,87,88,89,90,91},
	{2,3,4,5,6,7,8,9,10,11,12,13,14,15,16,17,18,19,20,21,22,23,24,25,26,27,28,29,30,31,32,33,34,35,36,37,38,39,40,41,42,43,44,45,46,47,48,49,50,51,52,53,54,55,56,57,58,59,60,61,62,63,64,65,66,67,68,69,70,71,72,73,74,75,76,77,78,79,80,81,82,83,84,85,86,87,88,89,91}];
